Version identifier: 20.1.0.0 | 2020-11-10 | 9bedb6d68
Tried aggregator 2 times.
MIP Presolve eliminated 1773 rows and 1030 columns.
MIP Presolve modified 3438 coefficients.
Aggregator did 185 substitutions.
Reduced MIP has 1448 rows, 1192 columns, and 4605 nonzeros.
Reduced MIP has 310 binaries, 882 generals, 0 SOSs, and 0 indicators.
Presolve time = 0.02 sec. (7.65 ticks)
Found incumbent of value 59.000000 after 0.03 sec. (12.99 ticks)
Probing fixed 40 vars, tightened 335 bounds.
Probing time = 0.00 sec. (1.60 ticks)
Tried aggregator 1 time.
Detecting symmetries...
MIP Presolve eliminated 600 rows and 40 columns.
MIP Presolve modified 71 coefficients.
Reduced MIP has 848 rows, 1152 columns, and 2765 nonzeros.
Reduced MIP has 431 binaries, 721 generals, 0 SOSs, and 0 indicators.
Presolve time = 0.01 sec. (3.34 ticks)
Probing time = 0.00 sec. (0.23 ticks)
Clique table members: 41.
MIP emphasis: balance optimality and feasibility.
MIP search method: dynamic search.
Parallel mode: deterministic, using up to 24 threads.
Root relaxation solution time = 0.01 sec. (2.62 ticks)

        Nodes                                         Cuts/
   Node  Left     Objective  IInf  Best Integer    Best Bound    ItCnt     Gap

*     0+    0                           59.0000        0.0000           100.00%
      0     0        0.0000    52       59.0000        0.0000      245  100.00%
*     0+    0                           10.0000        0.0000           100.00%
      0     0        0.5000    45       10.0000     Cuts: 183      527   95.00%
      0     0        1.0000    74       10.0000      Cuts: 65      576   90.00%
      0     0        1.0000    91       10.0000      Cuts: 40      635   90.00%
      0     0        1.0000   218       10.0000      Cuts: 27      698   90.00%
*     0+    0                            9.0000        1.0000            88.89%
*     0+    0                            8.0000        1.0000            87.50%
      0     0        cutoff              8.0000        8.0000      698    0.00%
Elapsed time = 0.24 sec. (123.89 ticks, tree = 0.01 MB, solutions = 4)

Implied bound cuts applied:  30
Mixed integer rounding cuts applied:  2
Zero-half cuts applied:  65
Gomory fractional cuts applied:  17

Root node processing (before b&c):
  Real time             =    0.24 sec. (124.02 ticks)
Parallel b&c, 24 threads:
  Real time             =    0.00 sec. (0.00 ticks)
  Sync time (average)   =    0.00 sec.
  Wait time (average)   =    0.00 sec.
                          ------------
Total (root+branch&cut) =    0.24 sec. (124.02 ticks)

Solution status = Optimal
Solution LB = 8
Solution UB = 8
Runtime = 0.243585 seconds
	Command being timed: "/home/min/git_repos/CS598MEBProject/CNT-ILP/build/cnt -s 2 ./output/k6_n40/simC_c1_k6_n40_u2_s3_del02.input-left.cnp"
	User time (seconds): 1.84
	System time (seconds): 0.06
	Percent of CPU this job got: 665%
	Elapsed (wall clock) time (h:mm:ss or m:ss): 0:00.28
	Average shared text size (kbytes): 0
	Average unshared data size (kbytes): 0
	Average stack size (kbytes): 0
	Average total size (kbytes): 0
	Maximum resident set size (kbytes): 83564
	Average resident set size (kbytes): 0
	Major (requiring I/O) page faults: 0
	Minor (reclaiming a frame) page faults: 17787
	Voluntary context switches: 3508
	Involuntary context switches: 191
	Swaps: 0
	File system inputs: 0
	File system outputs: 16
	Socket messages sent: 0
	Socket messages received: 0
	Signals delivered: 0
	Page size (bytes): 4096
	Exit status: 0
